58719
58,125,280,320,415,457,473,700,712,825,872,1634,1709,1769,1886,2057,2255,2307,2335,2583,2588,2605,2607,2646,2804,2970,2995,3004,3070,3170,3324,3416,3536,3538,3622,3753,3768,3805,3866,4102,4182,4228,4529,4573,4841,4857,4963,5223,5235,5341,5840,6121,6140,6144,6182,6485,6503,6563,6580,6636,6708,6716,6798,6845,7356,7402,7670,7786,7799,7922,7950,8008,8042,8070,8090,8223,8228,8310,8403,8434,8588,8666,8734,8748,8849,8935,9106,9582,9619,9717,9855,9963
